# Solution for model sexual reproduction_srl_ilp
# Objective value = 2.4319930894425541e+00
Z_420_0_0 0
Z_420_0_1 0
Z_420_0_2 0
Z_420_0_3 1
Z_420_0_4 0
Z_507_0_0 0
Z_507_0_1 0
Z_507_0_2 1
Z_507_0_3 0
Z_507_0_4 0
Z_278_0_0 0
Z_278_0_1 0
Z_278_0_2 1
Z_278_0_3 0
Z_278_0_4 0
